WARNING: for repeatability, setting FPU to use double precision
============================[ Problem Statistics ]=============================
|                                                                             |
|  Number of variables:            50                                         |
|  Number of clauses:             218                                         |
|  Parse time:                   0.00 s                                       |
|                                                                             |
============================[ Search Statistics ]==============================
| Conflicts |          ORIGINAL         |          LEARNT          | Progress |
|           |    Vars  Clauses Literals |    Limit  Clauses Lit/Cl |          |
===============================================================================
===============================================================================
restarts              : 1
conflicts             : 44             (30471 /sec)
decisions             : 49             (0.00 % random) (33934 /sec)
propagations          : 626            (433518 /sec)
conflict literals     : 166            (11.70 % deleted)
Memory used           : 20.00 MB
CPU time              : 0.001444 s

UNSATISFIABLE
